3 
4  53 
5  08 23 38 53 
6  03 11 19 26 34 41 49 56 
7  04 11 19 26 34 41 49 56 
8  04 11 19 26 34 42 52 
9  00 07 15 22 30 37 45 52 
10  00 07 15 22 30 37 45 52 
11  00 07 15 22 30 37 45 52 
12  00 07 15 22 30 37 45 52 59 
13  06 14 21 29 36 44 51 59 
14  06 14 21 29 36 44 51 59 
15  06 14 21 29 36 44 51 59 
16  06 14 21 29 36 44 51 59 
17  06 14 21 29 36 44 51 59 
18  06 14 23 31 38 46 53 
19  01 08 16 23 31 38 46 53 
20  01 08 16 23 31 38 46 
21  01 12 28 43 59 
22  13 29 43 58 
23  15 
0 
